p cnf 400 1
400 0
w 1 0.966341
w 2 1 1
w 2 -1 0
w 3 2 0
w 3 -2 1
w 4 3 0.0107024
w 4 -3 0.539642
w 5 4 0.928464
w 5 -4 0.0455326
w 6 5 1
w 6 -5 0
w 7 6 0
w 7 -6 1
w 8 7 0
w 8 -7 1
w 9 8 1
w 9 -8 0
w 10 9 1
w 10 -9 0
w 11 10 1
w 11 -10 0
w 12 11 1
w 12 -11 0
w 13 12 0
w 13 -12 1
w 14 13 1
w 14 -13 0
w 15 14 1
w 15 -14 0
w 16 15 0
w 16 -15 1
w 17 16 0
w 17 -16 1
w 18 17 0.992207
w 18 -17 0.750016
w 19 18 1
w 19 -18 0
w 20 19 0
w 20 -19 1
w 21 1 0.734993
w 21 -1 0.996675
w 22 21 2 0
w 22 21 -2 0
w 22 -21 2 1
w 22 -21 -2 1
w 23 22 3 0.196159
w 23 22 -3 0.852477
w 23 -22 3 0.276859
w 23 -22 -3 0.584557
w 24 23 4 0
w 24 23 -4 1
w 24 -23 4 1
w 24 -23 -4 1
w 25 24 5 0
w 25 24 -5 1
w 25 -24 5 1
w 25 -24 -5 1
w 26 25 6 0
w 26 25 -6 0
w 26 -25 6 1
w 26 -25 -6 0
w 27 26 7 0
w 27 26 -7 0
w 27 -26 7 0
w 27 -26 -7 1
w 28 27 8 1
w 28 27 -8 0
w 28 -27 8 1
w 28 -27 -8 0
w 29 28 9 1
w 29 28 -9 0
w 29 -28 9 1
w 29 -28 -9 1
w 30 29 10 0.614684
w 30 29 -10 0.221173
w 30 -29 10 0.215711
w 30 -29 -10 0.71963
w 31 30 11 0.650946
w 31 30 -11 0.295125
w 31 -30 11 0.729323
w 31 -30 -11 0.86802
w 32 31 12 0.341069
w 32 31 -12 0.0122258
w 32 -31 12 0.457292
w 32 -31 -12 0.702832
w 33 32 13 1
w 33 32 -13 1
w 33 -32 13 0
w 33 -32 -13 1
w 34 33 14 1
w 34 33 -14 1
w 34 -33 14 1
w 34 -33 -14 0
w 35 34 15 0
w 35 34 -15 0
w 35 -34 15 1
w 35 -34 -15 1
w 36 35 16 1
w 36 35 -16 1
w 36 -35 16 0
w 36 -35 -16 0
w 37 36 17 1
w 37 36 -17 1
w 37 -36 17 0
w 37 -36 -17 1
w 38 37 18 0
w 38 37 -18 1
w 38 -37 18 0
w 38 -37 -18 1
w 39 38 19 0
w 39 38 -19 1
w 39 -38 19 1
w 39 -38 -19 1
w 40 39 20 0
w 40 39 -20 0
w 40 -39 20 1
w 40 -39 -20 1
w 41 21 0.229471
w 41 -21 0.258791
w 42 41 22 0.97048
w 42 41 -22 0.18224
w 42 -41 22 0.521359
w 42 -41 -22 0.326173
w 43 42 23 0
w 43 42 -23 0
w 43 -42 23 0
w 43 -42 -23 1
w 44 43 24 0.0592073
w 44 43 -24 0.49685
w 44 -43 24 0.0224955
w 44 -43 -24 0.13111
w 45 44 25 0.730339
w 45 44 -25 0.905845
w 45 -44 25 0.0528256
w 45 -44 -25 0.301395
w 46 45 26 1
w 46 45 -26 1
w 46 -45 26 0
w 46 -45 -26 1
w 47 46 27 0.782608
w 47 46 -27 0.185089
w 47 -46 27 0.224755
w 47 -46 -27 0.0413987
w 48 47 28 0.195235
w 48 47 -28 0.223639
w 48 -47 28 0.508326
w 48 -47 -28 0.521408
w 49 48 29 1
w 49 48 -29 1
w 49 -48 29 1
w 49 -48 -29 0
w 50 49 30 0
w 50 49 -30 0
w 50 -49 30 0
w 50 -49 -30 1
w 51 50 31 0
w 51 50 -31 1
w 51 -50 31 1
w 51 -50 -31 0
w 52 51 32 0
w 52 51 -32 1
w 52 -51 32 0
w 52 -51 -32 0
w 53 52 33 1
w 53 52 -33 1
w 53 -52 33 1
w 53 -52 -33 0
w 54 53 34 0
w 54 53 -34 1
w 54 -53 34 1
w 54 -53 -34 1
w 55 54 35 0
w 55 54 -35 0
w 55 -54 35 0
w 55 -54 -35 1
w 56 55 36 0
w 56 55 -36 1
w 56 -55 36 0
w 56 -55 -36 1
w 57 56 37 0
w 57 56 -37 0
w 57 -56 37 0
w 57 -56 -37 1
w 58 57 38 0
w 58 57 -38 0
w 58 -57 38 1
w 58 -57 -38 1
w 59 58 39 0
w 59 58 -39 1
w 59 -58 39 0
w 59 -58 -39 1
w 60 59 40 0
w 60 59 -40 0
w 60 -59 40 1
w 60 -59 -40 1
w 61 41 0.808624
w 61 -41 0.436501
w 62 61 42 1
w 62 61 -42 1
w 62 -61 42 1
w 62 -61 -42 0
w 63 62 43 0.201579
w 63 62 -43 0.2779
w 63 -62 43 0.557555
w 63 -62 -43 0.661732
w 64 63 44 1
w 64 63 -44 0
w 64 -63 44 1
w 64 -63 -44 1
w 65 64 45 0
w 65 64 -45 0
w 65 -64 45 1
w 65 -64 -45 0
w 66 65 46 1
w 66 65 -46 1
w 66 -65 46 0
w 66 -65 -46 1
w 67 66 47 1
w 67 66 -47 0
w 67 -66 47 1
w 67 -66 -47 1
w 68 67 48 0
w 68 67 -48 0
w 68 -67 48 0
w 68 -67 -48 1
w 69 68 49 0.365804
w 69 68 -49 0.358678
w 69 -68 49 0.122974
w 69 -68 -49 0.923359
w 70 69 50 0
w 70 69 -50 0
w 70 -69 50 1
w 70 -69 -50 1
w 71 70 51 0.778874
w 71 70 -51 0.126538
w 71 -70 51 0.794457
w 71 -70 -51 0.587823
w 72 71 52 1
w 72 71 -52 1
w 72 -71 52 0
w 72 -71 -52 1
w 73 72 53 0
w 73 72 -53 0
w 73 -72 53 0
w 73 -72 -53 1
w 74 73 54 0
w 74 73 -54 0
w 74 -73 54 1
w 74 -73 -54 1
w 75 74 55 0.552466
w 75 74 -55 0.698661
w 75 -74 55 0.740525
w 75 -74 -55 0.572876
w 76 75 56 1
w 76 75 -56 1
w 76 -75 56 0
w 76 -75 -56 0
w 77 76 57 0.94149
w 77 76 -57 0.104022
w 77 -76 57 0.48056
w 77 -76 -57 0.986408
w 78 77 58 0
w 78 77 -58 0
w 78 -77 58 0
w 78 -77 -58 1
w 79 78 59 0
w 79 78 -59 1
w 79 -78 59 1
w 79 -78 -59 0
w 80 79 60 1
w 80 79 -60 1
w 80 -79 60 1
w 80 -79 -60 0
w 81 61 1
w 81 -61 0
w 82 81 62 0.411455
w 82 81 -62 0.557722
w 82 -81 62 0.532815
w 82 -81 -62 0.667804
w 83 82 63 0
w 83 82 -63 1
w 83 -82 63 1
w 83 -82 -63 1
w 84 83 64 1
w 84 83 -64 0
w 84 -83 64 1
w 84 -83 -64 0
w 85 84 65 1
w 85 84 -65 0
w 85 -84 65 1
w 85 -84 -65 0
w 86 85 66 1
w 86 85 -66 1
w 86 -85 66 1
w 86 -85 -66 0
w 87 86 67 0
w 87 86 -67 1
w 87 -86 67 0
w 87 -86 -67 0
w 88 87 68 0
w 88 87 -68 1
w 88 -87 68 1
w 88 -87 -68 0
w 89 88 69 0
w 89 88 -69 0
w 89 -88 69 1
w 89 -88 -69 1
w 90 89 70 1
w 90 89 -70 0
w 90 -89 70 1
w 90 -89 -70 1
w 91 90 71 0
w 91 90 -71 0
w 91 -90 71 0
w 91 -90 -71 1
w 92 91 72 0.180374
w 92 91 -72 0.647739
w 92 -91 72 0.289576
w 92 -91 -72 0.277346
w 93 92 73 1
w 93 92 -73 1
w 93 -92 73 0
w 93 -92 -73 1
w 94 93 74 0
w 94 93 -74 1
w 94 -93 74 1
w 94 -93 -74 0
w 95 94 75 0.991377
w 95 94 -75 0.0478764
w 95 -94 75 0.351651
w 95 -94 -75 0.42227
w 96 95 76 1
w 96 95 -76 0
w 96 -95 76 1
w 96 -95 -76 0
w 97 96 77 1
w 97 96 -77 1
w 97 -96 77 0
w 97 -96 -77 1
w 98 97 78 1
w 98 97 -78 1
w 98 -97 78 0
w 98 -97 -78 0
w 99 98 79 0.590416
w 99 98 -79 0.510759
w 99 -98 79 0.623208
w 99 -98 -79 0.30198
w 100 99 80 0.690399
w 100 99 -80 0.888212
w 100 -99 80 0.785684
w 100 -99 -80 0.666606
w 101 81 0.628445
w 101 -81 0.657983
w 102 101 82 0.980096
w 102 101 -82 0.0802528
w 102 -101 82 0.571256
w 102 -101 -82 0.264882
w 103 102 83 1
w 103 102 -83 0
w 103 -102 83 0
w 103 -102 -83 0
w 104 103 84 0
w 104 103 -84 1
w 104 -103 84 1
w 104 -103 -84 1
w 105 104 85 1
w 105 104 -85 0
w 105 -104 85 1
w 105 -104 -85 1
w 106 105 86 0
w 106 105 -86 0
w 106 -105 86 0
w 106 -105 -86 1
w 107 106 87 1
w 107 106 -87 0
w 107 -106 87 1
w 107 -106 -87 1
w 108 107 88 1
w 108 107 -88 0
w 108 -107 88 1
w 108 -107 -88 0
w 109 108 89 0
w 109 108 -89 1
w 109 -108 89 0
w 109 -108 -89 0
w 110 109 90 0
w 110 109 -90 0
w 110 -109 90 0
w 110 -109 -90 1
w 111 110 91 0.211522
w 111 110 -91 0.24725
w 111 -110 91 0.0956459
w 111 -110 -91 0.490092
w 112 111 92 0.687093
w 112 111 -92 0.737719
w 112 -111 92 0.0885871
w 112 -111 -92 0.166753
w 113 112 93 0.0210612
w 113 112 -93 0.528341
w 113 -112 93 0.432786
w 113 -112 -93 0.611518
w 114 113 94 0.0746371
w 114 113 -94 0.282228
w 114 -113 94 0.682382
w 114 -113 -94 0.981371
w 115 114 95 0
w 115 114 -95 0
w 115 -114 95 1
w 115 -114 -95 1
w 116 115 96 0.710073
w 116 115 -96 0.551913
w 116 -115 96 0.0903491
w 116 -115 -96 0.153783
w 117 116 97 0.896527
w 117 116 -97 0.365305
w 117 -116 97 0.0941523
w 117 -116 -97 0.992173
w 118 117 98 0.916871
w 118 117 -98 0.679267
w 118 -117 98 0.593116
w 118 -117 -98 0.00545819
w 119 118 99 0.364146
w 119 118 -99 0.0265194
w 119 -118 99 0.374361
w 119 -118 -99 0.796931
w 120 119 100 1
w 120 119 -100 0
w 120 -119 100 1
w 120 -119 -100 0
w 121 101 0.326363
w 121 -101 0.247764
w 122 121 102 0
w 122 121 -102 1
w 122 -121 102 1
w 122 -121 -102 0
w 123 122 103 1
w 123 122 -103 0
w 123 -122 103 0
w 123 -122 -103 1
w 124 123 104 0
w 124 123 -104 0
w 124 -123 104 0
w 124 -123 -104 1
w 125 124 105 0
w 125 124 -105 0
w 125 -124 105 0
w 125 -124 -105 1
w 126 125 106 0.496424
w 126 125 -106 0.199955
w 126 -125 106 0.629495
w 126 -125 -106 0.690518
w 127 126 107 1
w 127 126 -107 1
w 127 -126 107 0
w 127 -126 -107 1
w 128 127 108 1
w 128 127 -108 1
w 128 -127 108 0
w 128 -127 -108 1
w 129 128 109 1
w 129 128 -109 1
w 129 -128 109 0
w 129 -128 -109 0
w 130 129 110 1
w 130 129 -110 0
w 130 -129 110 1
w 130 -129 -110 0
w 131 130 111 1
w 131 130 -111 0
w 131 -130 111 0
w 131 -130 -111 0
w 132 131 112 0
w 132 131 -112 0
w 132 -131 112 0
w 132 -131 -112 1
w 133 132 113 1
w 133 132 -113 1
w 133 -132 113 0
w 133 -132 -113 1
w 134 133 114 1
w 134 133 -114 0
w 134 -133 114 0
w 134 -133 -114 1
w 135 134 115 0.883298
w 135 134 -115 0.828059
w 135 -134 115 0.507872
w 135 -134 -115 0.297709
w 136 135 116 1
w 136 135 -116 0
w 136 -135 116 0
w 136 -135 -116 0
w 137 136 117 1
w 137 136 -117 0
w 137 -136 117 0
w 137 -136 -117 0
w 138 137 118 0.230701
w 138 137 -118 0.033694
w 138 -137 118 0.927952
w 138 -137 -118 0.901896
w 139 138 119 0
w 139 138 -119 0
w 139 -138 119 1
w 139 -138 -119 1
w 140 139 120 0
w 140 139 -120 0
w 140 -139 120 0
w 140 -139 -120 1
w 141 121 0
w 141 -121 1
w 142 141 122 1
w 142 141 -122 1
w 142 -141 122 1
w 142 -141 -122 0
w 143 142 123 1
w 143 142 -123 0
w 143 -142 123 1
w 143 -142 -123 1
w 144 143 124 1
w 144 143 -124 1
w 144 -143 124 0
w 144 -143 -124 1
w 145 144 125 1
w 145 144 -125 1
w 145 -144 125 0
w 145 -144 -125 1
w 146 145 126 1
w 146 145 -126 1
w 146 -145 126 1
w 146 -145 -126 0
w 147 146 127 1
w 147 146 -127 0
w 147 -146 127 1
w 147 -146 -127 1
w 148 147 128 1
w 148 147 -128 0
w 148 -147 128 1
w 148 -147 -128 0
w 149 148 129 0
w 149 148 -129 0
w 149 -148 129 1
w 149 -148 -129 1
w 150 149 130 1
w 150 149 -130 0
w 150 -149 130 1
w 150 -149 -130 0
w 151 150 131 0
w 151 150 -131 1
w 151 -150 131 1
w 151 -150 -131 0
w 152 151 132 0
w 152 151 -132 1
w 152 -151 132 0
w 152 -151 -132 0
w 153 152 133 1
w 153 152 -133 0
w 153 -152 133 1
w 153 -152 -133 0
w 154 153 134 0.53899
w 154 153 -134 0.200182
w 154 -153 134 0.276135
w 154 -153 -134 0.917212
w 155 154 135 0.424474
w 155 154 -135 0.18509
w 155 -154 135 0.330521
w 155 -154 -135 0.122029
w 156 155 136 1
w 156 155 -136 0
w 156 -155 136 0
w 156 -155 -136 1
w 157 156 137 1
w 157 156 -137 1
w 157 -156 137 0
w 157 -156 -137 0
w 158 157 138 1
w 158 157 -138 0
w 158 -157 138 0
w 158 -157 -138 1
w 159 158 139 0.886351
w 159 158 -139 0.600889
w 159 -158 139 0.852277
w 159 -158 -139 0.735086
w 160 159 140 0
w 160 159 -140 1
w 160 -159 140 0
w 160 -159 -140 1
w 161 141 0
w 161 -141 1
w 162 161 142 0
w 162 161 -142 0
w 162 -161 142 0
w 162 -161 -142 1
w 163 162 143 0
w 163 162 -143 1
w 163 -162 143 0
w 163 -162 -143 0
w 164 163 144 0.942904
w 164 163 -144 0.954697
w 164 -163 144 0.467909
w 164 -163 -144 0.486152
w 165 164 145 1
w 165 164 -145 0
w 165 -164 145 0
w 165 -164 -145 0
w 166 165 146 0
w 166 165 -146 1
w 166 -165 146 0
w 166 -165 -146 1
w 167 166 147 0.0534699
w 167 166 -147 0.101878
w 167 -166 147 0.971831
w 167 -166 -147 0.244758
w 168 167 148 0.435962
w 168 167 -148 0.621136
w 168 -167 148 0.927491
w 168 -167 -148 0.022123
w 169 168 149 0
w 169 168 -149 1
w 169 -168 149 1
w 169 -168 -149 1
w 170 169 150 0
w 170 169 -150 1
w 170 -169 150 0
w 170 -169 -150 0
w 171 170 151 0
w 171 170 -151 1
w 171 -170 151 0
w 171 -170 -151 0
w 172 171 152 1
w 172 171 -152 1
w 172 -171 152 0
w 172 -171 -152 1
w 173 172 153 1
w 173 172 -153 0
w 173 -172 153 1
w 173 -172 -153 0
w 174 173 154 0.473793
w 174 173 -154 0.86695
w 174 -173 154 0.376203
w 174 -173 -154 0.401284
w 175 174 155 0.526697
w 175 174 -155 0.431206
w 175 -174 155 0.116183
w 175 -174 -155 0.849485
w 176 175 156 0
w 176 175 -156 0
w 176 -175 156 1
w 176 -175 -156 1
w 177 176 157 0
w 177 176 -157 1
w 177 -176 157 0
w 177 -176 -157 0
w 178 177 158 0
w 178 177 -158 1
w 178 -177 158 0
w 178 -177 -158 0
w 179 178 159 0
w 179 178 -159 0
w 179 -178 159 0
w 179 -178 -159 1
w 180 179 160 1
w 180 179 -160 1
w 180 -179 160 1
w 180 -179 -160 0
w 181 161 0.258277
w 181 -161 0.877244
w 182 181 162 1
w 182 181 -162 1
w 182 -181 162 0
w 182 -181 -162 1
w 183 182 163 0.147365
w 183 182 -163 0.294511
w 183 -182 163 0.444783
w 183 -182 -163 0.0889091
w 184 183 164 1
w 184 183 -164 0
w 184 -183 164 1
w 184 -183 -164 1
w 185 184 165 0.381995
w 185 184 -165 0.868825
w 185 -184 165 0.624688
w 185 -184 -165 0.655014
w 186 185 166 0.843965
w 186 185 -166 0.552401
w 186 -185 166 0.442347
w 186 -185 -166 0.818309
w 187 186 167 0.811552
w 187 186 -167 0.168855
w 187 -186 167 0.696046
w 187 -186 -167 0.0698291
w 188 187 168 1
w 188 187 -168 1
w 188 -187 168 0
w 188 -187 -168 0
w 189 188 169 0
w 189 188 -169 0
w 189 -188 169 1
w 189 -188 -169 1
w 190 189 170 0.949522
w 190 189 -170 0.149133
w 190 -189 170 0.480584
w 190 -189 -170 0.580989
w 191 190 171 0
w 191 190 -171 1
w 191 -190 171 0
w 191 -190 -171 1
w 192 191 172 1
w 192 191 -172 0
w 192 -191 172 0
w 192 -191 -172 0
w 193 192 173 0
w 193 192 -173 0
w 193 -192 173 1
w 193 -192 -173 0
w 194 193 174 0.689742
w 194 193 -174 0.982782
w 194 -193 174 0.671048
w 194 -193 -174 0.27046
w 195 194 175 0
w 195 194 -175 0
w 195 -194 175 0
w 195 -194 -175 1
w 196 195 176 0.252003
w 196 195 -176 0.330496
w 196 -195 176 0.296119
w 196 -195 -176 0.832992
w 197 196 177 1
w 197 196 -177 1
w 197 -196 177 1
w 197 -196 -177 0
w 198 197 178 0
w 198 197 -178 0
w 198 -197 178 1
w 198 -197 -178 0
w 199 198 179 0
w 199 198 -179 0
w 199 -198 179 0
w 199 -198 -179 1
w 200 199 180 0.0119835
w 200 199 -180 0.158123
w 200 -199 180 0.872827
w 200 -199 -180 0.683031
w 201 181 1
w 201 -181 0
w 202 201 182 0.427126
w 202 201 -182 0.670684
w 202 -201 182 0.0682085
w 202 -201 -182 0.242661
w 203 202 183 0.398704
w 203 202 -183 0.53878
w 203 -202 183 0.755678
w 203 -202 -183 0.135047
w 204 203 184 0
w 204 203 -184 1
w 204 -203 184 0
w 204 -203 -184 1
w 205 204 185 1
w 205 204 -185 0
w 205 -204 185 0
w 205 -204 -185 1
w 206 205 186 0
w 206 205 -186 0
w 206 -205 186 0
w 206 -205 -186 1
w 207 206 187 0.854858
w 207 206 -187 0.369152
w 207 -206 187 0.593413
w 207 -206 -187 0.283441
w 208 207 188 1
w 208 207 -188 1
w 208 -207 188 1
w 208 -207 -188 0
w 209 208 189 0.330726
w 209 208 -189 0.947171
w 209 -208 189 0.492009
w 209 -208 -189 0.0864042
w 210 209 190 1
w 210 209 -190 1
w 210 -209 190 0
w 210 -209 -190 0
w 211 210 191 0
w 211 210 -191 1
w 211 -210 191 0
w 211 -210 -191 0
w 212 211 192 0.382043
w 212 211 -192 0.461123
w 212 -211 192 0.873861
w 212 -211 -192 0.0787783
w 213 212 193 0.784242
w 213 212 -193 0.933637
w 213 -212 193 0.326601
w 213 -212 -193 0.377656
w 214 213 194 1
w 214 213 -194 0
w 214 -213 194 0
w 214 -213 -194 0
w 215 214 195 1
w 215 214 -195 0
w 215 -214 195 1
w 215 -214 -195 1
w 216 215 196 0.435771
w 216 215 -196 0.0960957
w 216 -215 196 0.527184
w 216 -215 -196 0.664049
w 217 216 197 0.130871
w 217 216 -197 0.264165
w 217 -216 197 0.954755
w 217 -216 -197 0.284558
w 218 217 198 0
w 218 217 -198 0
w 218 -217 198 1
w 218 -217 -198 0
w 219 218 199 0
w 219 218 -199 0
w 219 -218 199 1
w 219 -218 -199 0
w 220 219 200 0.896094
w 220 219 -200 0.928135
w 220 -219 200 0.82389
w 220 -219 -200 0.823739
w 221 201 1
w 221 -201 0
w 222 221 202 0
w 222 221 -202 0
w 222 -221 202 1
w 222 -221 -202 1
w 223 222 203 1
w 223 222 -203 0
w 223 -222 203 0
w 223 -222 -203 0
w 224 223 204 0.947809
w 224 223 -204 0.892276
w 224 -223 204 0.0345908
w 224 -223 -204 0.0668164
w 225 224 205 0.701192
w 225 224 -205 0.646947
w 225 -224 205 0.626571
w 225 -224 -205 0.446572
w 226 225 206 0
w 226 225 -206 1
w 226 -225 206 1
w 226 -225 -206 1
w 227 226 207 1
w 227 226 -207 0
w 227 -226 207 1
w 227 -226 -207 0
w 228 227 208 1
w 228 227 -208 0
w 228 -227 208 1
w 228 -227 -208 0
w 229 228 209 1
w 229 228 -209 0
w 229 -228 209 0
w 229 -228 -209 0
w 230 229 210 0
w 230 229 -210 1
w 230 -229 210 1
w 230 -229 -210 1
w 231 230 211 1
w 231 230 -211 1
w 231 -230 211 1
w 231 -230 -211 0
w 232 231 212 1
w 232 231 -212 0
w 232 -231 212 1
w 232 -231 -212 1
w 233 232 213 1
w 233 232 -213 1
w 233 -232 213 0
w 233 -232 -213 1
w 234 233 214 0
w 234 233 -214 1
w 234 -233 214 0
w 234 -233 -214 0
w 235 234 215 0
w 235 234 -215 0
w 235 -234 215 1
w 235 -234 -215 0
w 236 235 216 0.35428
w 236 235 -216 0.364832
w 236 -235 216 0.564287
w 236 -235 -216 0.429864
w 237 236 217 0.0176984
w 237 236 -217 0.206641
w 237 -236 217 0.0852171
w 237 -236 -217 0.0976811
w 238 237 218 0
w 238 237 -218 1
w 238 -237 218 0
w 238 -237 -218 0
w 239 238 219 0.149542
w 239 238 -219 0.264037
w 239 -238 219 0.348797
w 239 -238 -219 0.36558
w 240 239 220 1
w 240 239 -220 0
w 240 -239 220 1
w 240 -239 -220 1
w 241 221 0
w 241 -221 1
w 242 241 222 0.719979
w 242 241 -222 0.720876
w 242 -241 222 0.866475
w 242 -241 -222 0.653347
w 243 242 223 0
w 243 242 -223 1
w 243 -242 223 1
w 243 -242 -223 0
w 244 243 224 0
w 244 243 -224 0
w 244 -243 224 0
w 244 -243 -224 1
w 245 244 225 0
w 245 244 -225 1
w 245 -244 225 1
w 245 -244 -225 0
w 246 245 226 0
w 246 245 -226 0
w 246 -245 226 1
w 246 -245 -226 0
w 247 246 227 0
w 247 246 -227 1
w 247 -246 227 1
w 247 -246 -227 1
w 248 247 228 0
w 248 247 -228 1
w 248 -247 228 0
w 248 -247 -228 0
w 249 248 229 0
w 249 248 -229 1
w 249 -248 229 1
w 249 -248 -229 0
w 250 249 230 0.64613
w 250 249 -230 0.0259635
w 250 -249 230 0.25191
w 250 -249 -230 0.78778
w 251 250 231 0
w 251 250 -231 0
w 251 -250 231 1
w 251 -250 -231 1
w 252 251 232 0.0450555
w 252 251 -232 0.514009
w 252 -251 232 0.214168
w 252 -251 -232 0.885619
w 253 252 233 1
w 253 252 -233 0
w 253 -252 233 0
w 253 -252 -233 0
w 254 253 234 0
w 254 253 -234 1
w 254 -253 234 0
w 254 -253 -234 0
w 255 254 235 0
w 255 254 -235 1
w 255 -254 235 0
w 255 -254 -235 1
w 256 255 236 0
w 256 255 -236 0
w 256 -255 236 0
w 256 -255 -236 1
w 257 256 237 0.354008
w 257 256 -237 0.98448
w 257 -256 237 0.605348
w 257 -256 -237 0.593241
w 258 257 238 0
w 258 257 -238 1
w 258 -257 238 0
w 258 -257 -238 0
w 259 258 239 1
w 259 258 -239 0
w 259 -258 239 1
w 259 -258 -239 1
w 260 259 240 1
w 260 259 -240 0
w 260 -259 240 0
w 260 -259 -240 0
w 261 241 0
w 261 -241 1
w 262 261 242 0
w 262 261 -242 1
w 262 -261 242 0
w 262 -261 -242 0
w 263 262 243 1
w 263 262 -243 0
w 263 -262 243 1
w 263 -262 -243 1
w 264 263 244 1
w 264 263 -244 1
w 264 -263 244 0
w 264 -263 -244 1
w 265 264 245 0
w 265 264 -245 1
w 265 -264 245 0
w 265 -264 -245 1
w 266 265 246 1
w 266 265 -246 0
w 266 -265 246 1
w 266 -265 -246 1
w 267 266 247 0
w 267 266 -247 1
w 267 -266 247 0
w 267 -266 -247 0
w 268 267 248 0.66001
w 268 267 -248 0.762588
w 268 -267 248 0.0147756
w 268 -267 -248 0.344253
w 269 268 249 1
w 269 268 -249 0
w 269 -268 249 1
w 269 -268 -249 1
w 270 269 250 1
w 270 269 -250 0
w 270 -269 250 1
w 270 -269 -250 1
w 271 270 251 0
w 271 270 -251 1
w 271 -270 251 0
w 271 -270 -251 1
w 272 271 252 0.830102
w 272 271 -252 0.74613
w 272 -271 252 0.575284
w 272 -271 -252 0.634198
w 273 272 253 0.213188
w 273 272 -253 0.917688
w 273 -272 253 0.377797
w 273 -272 -253 0.944047
w 274 273 254 0
w 274 273 -254 0
w 274 -273 254 1
w 274 -273 -254 1
w 275 274 255 0.314664
w 275 274 -255 0.0786854
w 275 -274 255 0.983807
w 275 -274 -255 0.134853
w 276 275 256 0.695028
w 276 275 -256 0.0376867
w 276 -275 256 0.158702
w 276 -275 -256 0.637799
w 277 276 257 1
w 277 276 -257 1
w 277 -276 257 0
w 277 -276 -257 1
w 278 277 258 1
w 278 277 -258 0
w 278 -277 258 0
w 278 -277 -258 0
w 279 278 259 1
w 279 278 -259 1
w 279 -278 259 0
w 279 -278 -259 1
w 280 279 260 0.289726
w 280 279 -260 0.0550184
w 280 -279 260 0.745624
w 280 -279 -260 0.674596
w 281 261 1
w 281 -261 0
w 282 281 262 0.987136
w 282 281 -262 0.195141
w 282 -281 262 0.558831
w 282 -281 -262 0.682165
w 283 282 263 1
w 283 282 -263 1
w 283 -282 263 0
w 283 -282 -263 0
w 284 283 264 1
w 284 283 -264 0
w 284 -283 264 0
w 284 -283 -264 1
w 285 284 265 1
w 285 284 -265 1
w 285 -284 265 0
w 285 -284 -265 1
w 286 285 266 0.44617
w 286 285 -266 0.45059
w 286 -285 266 0.674925
w 286 -285 -266 0.735896
w 287 286 267 0
w 287 286 -267 0
w 287 -286 267 1
w 287 -286 -267 0
w 288 287 268 1
w 288 287 -268 0
w 288 -287 268 1
w 288 -287 -268 0
w 289 288 269 0.440137
w 289 288 -269 0.498203
w 289 -288 269 0.548617
w 289 -288 -269 0.934109
w 290 289 270 1
w 290 289 -270 1
w 290 -289 270 0
w 290 -289 -270 0
w 291 290 271 1
w 291 290 -271 1
w 291 -290 271 1
w 291 -290 -271 0
w 292 291 272 1
w 292 291 -272 0
w 292 -291 272 1
w 292 -291 -272 1
w 293 292 273 1
w 293 292 -273 0
w 293 -292 273 1
w 293 -292 -273 1
w 294 293 274 0
w 294 293 -274 0
w 294 -293 274 0
w 294 -293 -274 1
w 295 294 275 0.698762
w 295 294 -275 0.350676
w 295 -294 275 0.358152
w 295 -294 -275 0.247379
w 296 295 276 1
w 296 295 -276 0
w 296 -295 276 1
w 296 -295 -276 0
w 297 296 277 1
w 297 296 -277 1
w 297 -296 277 1
w 297 -296 -277 0
w 298 297 278 0
w 298 297 -278 1
w 298 -297 278 0
w 298 -297 -278 0
w 299 298 279 0
w 299 298 -279 1
w 299 -298 279 1
w 299 -298 -279 1
w 300 299 280 0.329719
w 300 299 -280 0.0188504
w 300 -299 280 0.661207
w 300 -299 -280 0.119676
w 301 281 0.521157
w 301 -281 0.818438
w 302 301 282 0
w 302 301 -282 1
w 302 -301 282 0
w 302 -301 -282 1
w 303 302 283 0
w 303 302 -283 1
w 303 -302 283 1
w 303 -302 -283 1
w 304 303 284 0.0726301
w 304 303 -284 0.488457
w 304 -303 284 0.115232
w 304 -303 -284 0.0186998
w 305 304 285 0.308315
w 305 304 -285 0.13586
w 305 -304 285 0.441052
w 305 -304 -285 0.115068
w 306 305 286 0.65679
w 306 305 -286 0.945983
w 306 -305 286 0.909216
w 306 -305 -286 0.986509
w 307 306 287 0.570423
w 307 306 -287 0.106185
w 307 -306 287 0.894224
w 307 -306 -287 0.0915801
w 308 307 288 0.17429
w 308 307 -288 0.970889
w 308 -307 288 0.990441
w 308 -307 -288 0.739141
w 309 308 289 0.332802
w 309 308 -289 0.199536
w 309 -308 289 0.824689
w 309 -308 -289 0.179862
w 310 309 290 0.624612
w 310 309 -290 0.252492
w 310 -309 290 0.344121
w 310 -309 -290 0.739844
w 311 310 291 0
w 311 310 -291 0
w 311 -310 291 1
w 311 -310 -291 1
w 312 311 292 1
w 312 311 -292 0
w 312 -311 292 0
w 312 -311 -292 0
w 313 312 293 1
w 313 312 -293 0
w 313 -312 293 0
w 313 -312 -293 0
w 314 313 294 0.317739
w 314 313 -294 0.142558
w 314 -313 294 0.87888
w 314 -313 -294 0.308179
w 315 314 295 0.78735
w 315 314 -295 0.640981
w 315 -314 295 0.0812352
w 315 -314 -295 0.612039
w 316 315 296 0.936899
w 316 315 -296 0.236651
w 316 -315 296 0.0733354
w 316 -315 -296 0.28102
w 317 316 297 0.344527
w 317 316 -297 0.483599
w 317 -316 297 0.0246548
w 317 -316 -297 0.75158
w 318 317 298 1
w 318 317 -298 1
w 318 -317 298 0
w 318 -317 -298 1
w 319 318 299 1
w 319 318 -299 0
w 319 -318 299 1
w 319 -318 -299 1
w 320 319 300 1
w 320 319 -300 0
w 320 -319 300 1
w 320 -319 -300 1
w 321 301 0
w 321 -301 1
w 322 321 302 1
w 322 321 -302 0
w 322 -321 302 1
w 322 -321 -302 0
w 323 322 303 0
w 323 322 -303 1
w 323 -322 303 1
w 323 -322 -303 1
w 324 323 304 1
w 324 323 -304 1
w 324 -323 304 0
w 324 -323 -304 1
w 325 324 305 1
w 325 324 -305 1
w 325 -324 305 1
w 325 -324 -305 0
w 326 325 306 1
w 326 325 -306 1
w 326 -325 306 0
w 326 -325 -306 0
w 327 326 307 0.252299
w 327 326 -307 0.934678
w 327 -326 307 0.682614
w 327 -326 -307 0.615963
w 328 327 308 0
w 328 327 -308 0
w 328 -327 308 0
w 328 -327 -308 1
w 329 328 309 0
w 329 328 -309 1
w 329 -328 309 0
w 329 -328 -309 0
w 330 329 310 1
w 330 329 -310 0
w 330 -329 310 0
w 330 -329 -310 1
w 331 330 311 0.226843
w 331 330 -311 0.517767
w 331 -330 311 0.740391
w 331 -330 -311 0.642718
w 332 331 312 0.678709
w 332 331 -312 0.166287
w 332 -331 312 0.719026
w 332 -331 -312 0.675766
w 333 332 313 1
w 333 332 -313 1
w 333 -332 313 0
w 333 -332 -313 1
w 334 333 314 0
w 334 333 -314 1
w 334 -333 314 1
w 334 -333 -314 1
w 335 334 315 1
w 335 334 -315 1
w 335 -334 315 0
w 335 -334 -315 1
w 336 335 316 0.448196
w 336 335 -316 0.65283
w 336 -335 316 0.263475
w 336 -335 -316 0.973743
w 337 336 317 0
w 337 336 -317 1
w 337 -336 317 0
w 337 -336 -317 0
w 338 337 318 0.57727
w 338 337 -318 0.635396
w 338 -337 318 0.0095915
w 338 -337 -318 0.296296
w 339 338 319 0
w 339 338 -319 0
w 339 -338 319 0
w 339 -338 -319 1
w 340 339 320 1
w 340 339 -320 0
w 340 -339 320 1
w 340 -339 -320 0
w 341 321 1
w 341 -321 0
w 342 341 322 0
w 342 341 -322 0
w 342 -341 322 1
w 342 -341 -322 0
w 343 342 323 0.542174
w 343 342 -323 0.212108
w 343 -342 323 0.0167019
w 343 -342 -323 0.758471
w 344 343 324 0
w 344 343 -324 0
w 344 -343 324 0
w 344 -343 -324 1
w 345 344 325 0
w 345 344 -325 0
w 345 -344 325 0
w 345 -344 -325 1
w 346 345 326 0.583325
w 346 345 -326 0.313255
w 346 -345 326 0.641376
w 346 -345 -326 0.775024
w 347 346 327 1
w 347 346 -327 0
w 347 -346 327 1
w 347 -346 -327 1
w 348 347 328 1
w 348 347 -328 0
w 348 -347 328 1
w 348 -347 -328 0
w 349 348 329 0.687946
w 349 348 -329 0.312487
w 349 -348 329 0.978955
w 349 -348 -329 0.704648
w 350 349 330 1
w 350 349 -330 1
w 350 -349 330 1
w 350 -349 -330 0
w 351 350 331 1
w 351 350 -331 0
w 351 -350 331 1
w 351 -350 -331 1
w 352 351 332 0
w 352 351 -332 1
w 352 -351 332 1
w 352 -351 -332 0
w 353 352 333 1
w 353 352 -333 1
w 353 -352 333 1
w 353 -352 -333 0
w 354 353 334 0
w 354 353 -334 1
w 354 -353 334 1
w 354 -353 -334 0
w 355 354 335 0.697242
w 355 354 -335 0.389203
w 355 -354 335 0.259322
w 355 -354 -335 0.676197
w 356 355 336 1
w 356 355 -336 0
w 356 -355 336 1
w 356 -355 -336 0
w 357 356 337 1
w 357 356 -337 1
w 357 -356 337 1
w 357 -356 -337 0
w 358 357 338 0
w 358 357 -338 0
w 358 -357 338 1
w 358 -357 -338 1
w 359 358 339 1
w 359 358 -339 1
w 359 -358 339 0
w 359 -358 -339 0
w 360 359 340 0.570043
w 360 359 -340 0.899318
w 360 -359 340 0.118937
w 360 -359 -340 0.500437
w 361 341 0
w 361 -341 1
w 362 361 342 1
w 362 361 -342 0
w 362 -361 342 0
w 362 -361 -342 1
w 363 362 343 1
w 363 362 -343 0
w 363 -362 343 0
w 363 -362 -343 1
w 364 363 344 1
w 364 363 -344 0
w 364 -363 344 0
w 364 -363 -344 0
w 365 364 345 0
w 365 364 -345 1
w 365 -364 345 0
w 365 -364 -345 1
w 366 365 346 1
w 366 365 -346 0
w 366 -365 346 1
w 366 -365 -346 1
w 367 366 347 0.978797
w 367 366 -347 0.0866334
w 367 -366 347 0.379739
w 367 -366 -347 0.579371
w 368 367 348 1
w 368 367 -348 0
w 368 -367 348 1
w 368 -367 -348 0
w 369 368 349 0
w 369 368 -349 1
w 369 -368 349 1
w 369 -368 -349 0
w 370 369 350 1
w 370 369 -350 0
w 370 -369 350 1
w 370 -369 -350 1
w 371 370 351 0
w 371 370 -351 1
w 371 -370 351 1
w 371 -370 -351 0
w 372 371 352 0
w 372 371 -352 0
w 372 -371 352 1
w 372 -371 -352 1
w 373 372 353 0
w 373 372 -353 1
w 373 -372 353 1
w 373 -372 -353 0
w 374 373 354 1
w 374 373 -354 0
w 374 -373 354 0
w 374 -373 -354 0
w 375 374 355 0
w 375 374 -355 1
w 375 -374 355 1
w 375 -374 -355 1
w 376 375 356 1
w 376 375 -356 0
w 376 -375 356 1
w 376 -375 -356 0
w 377 376 357 0.00463694
w 377 376 -357 0.0837991
w 377 -376 357 0.764968
w 377 -376 -357 0.519875
w 378 377 358 0
w 378 377 -358 1
w 378 -377 358 1
w 378 -377 -358 1
w 379 378 359 0.0690407
w 379 378 -359 0.721221
w 379 -378 359 0.501441
w 379 -378 -359 0.470979
w 380 379 360 1
w 380 379 -360 0
w 380 -379 360 0
w 380 -379 -360 1
w 381 361 0
w 381 -361 1
w 382 381 362 0
w 382 381 -362 1
w 382 -381 362 1
w 382 -381 -362 1
w 383 382 363 0.0818343
w 383 382 -363 0.290126
w 383 -382 363 0.355845
w 383 -382 -363 0.83512
w 384 383 364 1
w 384 383 -364 0
w 384 -383 364 1
w 384 -383 -364 0
w 385 384 365 0
w 385 384 -365 1
w 385 -384 365 1
w 385 -384 -365 0
w 386 385 366 0
w 386 385 -366 1
w 386 -385 366 0
w 386 -385 -366 0
w 387 386 367 1
w 387 386 -367 0
w 387 -386 367 0
w 387 -386 -367 0
w 388 387 368 1
w 388 387 -368 0
w 388 -387 368 1
w 388 -387 -368 0
w 389 388 369 0
w 389 388 -369 0
w 389 -388 369 0
w 389 -388 -369 1
w 390 389 370 1
w 390 389 -370 0
w 390 -389 370 1
w 390 -389 -370 0
w 391 390 371 1
w 391 390 -371 1
w 391 -390 371 0
w 391 -390 -371 0
w 392 391 372 0.662256
w 392 391 -372 0.912366
w 392 -391 372 0.140625
w 392 -391 -372 0.801783
w 393 392 373 0.173437
w 393 392 -373 0.966633
w 393 -392 373 0.775767
w 393 -392 -373 0.781341
w 394 393 374 0
w 394 393 -374 1
w 394 -393 374 1
w 394 -393 -374 1
w 395 394 375 0.367754
w 395 394 -375 0.747872
w 395 -394 375 0.241953
w 395 -394 -375 0.393064
w 396 395 376 0.51971
w 396 395 -376 0.713137
w 396 -395 376 0.405092
w 396 -395 -376 0.397555
w 397 396 377 0.799295
w 397 396 -377 0.793268
w 397 -396 377 0.931677
w 397 -396 -377 0.793005
w 398 397 378 1
w 398 397 -378 0
w 398 -397 378 1
w 398 -397 -378 0
w 399 398 379 0
w 399 398 -379 0
w 399 -398 379 0
w 399 -398 -379 1
w 400 399 380 0.412331
w 400 399 -380 0.81705
w 400 -399 380 0.3271
w 400 -399 -380 0.0449011